50, 7033
174, 10
609, 35
783, 45
870, 50
84, 784
84, 784
696, 40
108, 1008
348, 20
108, 1008
120, 1120
120, 1120
84, 784
36, 336
48, 448
120, 1120
24, 224
609, 35
12, 112
12, 112
72, 672
60, 560
870, 50
48, 448
36, 336
522, 30
84, 784
12, 112
348, 20
60, 560
120, 1120
435, 25
783, 45
522, 30
348, 20
174, 10
72, 672
609, 35
609, 35
60, 560
870, 50
783, 45
72, 672
120, 1120
60, 560
609, 35
96, 896
84, 784
12, 112
609, 35
